qe/outputs/qe/cbrdelay_obs_newl/T=5,eliminate=[I_0,I_1,I_2,I_3,I_4,L_2,L_3,L_4,C,B,lhs=L_1],pl=1.smt2
; benchmark generated from python API
(set-info :status unknown)
(declare-fun S_0 () Real)
(declare-fun A_3 () Real)
(declare-fun L_1 () Real)
(declare-fun S_3 () Real)
(declare-fun S_4 () Real)
(declare-fun S_1 () Real)
(declare-fun L_0 () Real)
(declare-fun A_0 () Real)
(declare-fun S_2 () Real)
(declare-fun A_4 () Real)
(declare-fun A_2 () Real)
(declare-fun A_1 () Real)
(assert
 (let (($x1426 (<= (+ S_4 (* (- (/ 1.0 2.0)) S_3) L_1 (* (- 1.0) A_3) (* (/ 1.0 2.0) S_0)) 0.0)))
 (let (($x1918 (<= (+ (* (- 1.0) A_0) L_0 (* (- 1.0) S_3) (* 2.0 S_1)) 0.0)))
 (let (($x34 (>= L_0 0.0)))
 (let ((?x377 (* (- 1.0) A_4)))
 (let ((?x369 (* (- 1.0) A_1)))
 (let ((?x356 (* (- 1.0) S_3)))
 (let (($x51 (= L_1 L_0)))
 (let (($x14490 (or $x51 (<= (+ S_4 L_1 ?x369 ?x377 A_2 (* (- 1.0) S_2) S_0) 0.0))))
 (let (($x6147 (<= (+ S_4 (* (- (/ 1.0 2.0)) S_3) L_1 ?x369 ?x377 A_2 (* (/ 1.0 2.0) S_0)) 0.0)))
 (let (($x1023 (<= (+ (* (- 1.0) S_4) (* (- 1.0) L_1) A_3) 0.0)))
 (let (($x2149 (<= (+ (* (- (/ 1.0 2.0)) S_4) (* (- 1.0) A_0) L_0 (* (/ 3.0 2.0) S_1)) 0.0)))
 (let (($x14371 (or $x1023 (<= (+ (* (- 3.0) S_4) (* 4.0 S_2) (* (- 1.0) S_0)) 0.0))))
 (let (($x1712 (<= (+ (* (- 2.0) S_4) (* (- 1.0) A_0) L_0 (* 3.0 S_2)) 0.0)))
 (let (($x14409 (or $x1023 (<= (+ (* (- 1.0) S_4) (* 2.0 S_1) (* (- 1.0) S_0)) 0.0))))
 (let (($x14439 (or $x1023 (<= (+ (* (- 2.0) S_4) (* 3.0 S_2) (* (- 1.0) S_1)) 0.0))))
 (let (($x108 (>= S_1 S_0)))
 (let (($x111 (>= S_2 S_1)))
 (let (($x114 (>= S_3 S_2)))
 (let (($x117 (>= S_4 S_3)))
 (let (($x120 (>= A_2 A_1)))
 (let (($x121 (>= A_3 A_2)))
 (let (($x122 (>= A_4 A_3)))
 (and (not (<= (+ A_1 (* (- 1.0) L_1)) S_3)) $x122 $x121 $x120 $x117 $x114 $x111 $x108 (<= (+ A_0 (* (- 1.0) L_0)) S_3) (or (not (<= 0.0 (+ L_0 (* (- 1.0) L_1)))) $x51) (or (<= (+ (* (- 1.0) S_4) S_2) (- 5.0)) $x1023) $x14439 $x14409 (or $x1023 (<= (+ (* (- (/ 1.0 3.0)) S_4) (* (/ 1.0 3.0) S_0)) (- 5.0))) (or $x1023 $x1712) $x14371 (<= (+ (* (- 1.0) S_2) S_0) (- 5.0)) (<= (+ (* (/ 1.0 3.0) S_3) (* (- 1.0) S_2) (* (/ 2.0 3.0) S_0)) 0.0) (or $x1023 $x2149) (or $x1023 (<= (+ (* (- (/ 1.0 2.0)) S_4) (* (/ 1.0 2.0) S_1)) (- 5.0))) (or $x51 $x6147) $x14490 (<= (+ S_4 L_1 (* (- 1.0) A_3) (* (- 1.0) S_2) S_0) 0.0) (or $x51 (<= (+ S_4 ?x356 L_1 ?x369 ?x377 A_2 S_1) 0.0)) $x34 (<= (+ S_4 L_1 ?x377) 0.0) (<= (+ (* (- (/ 1.0 2.0)) S_3) (* (/ 1.0 2.0) S_0)) (- 5.0)) (<= (+ (* (- 1.0) A_0) L_0 S_0) 0.0) (<= (+ (* (/ 1.0 4.0) S_4) (* (- 1.0) S_2) (* (/ 3.0 4.0) S_0)) 0.0) (<= (+ (* (/ 1.0 2.0) S_4) ?x356 (* (/ 1.0 2.0) S_0)) 0.0) (<= (+ ?x356 S_1) (- 5.0)) (<= (+ S_4 (* (- 3.0) S_3) (* 2.0 S_1)) 0.0) (<= (+ (* (- 2.0) S_3) (* 3.0 S_1) (* (- 1.0) S_0)) 0.0) $x1918 (<= (+ S_4 ?x356 L_1 (* (- 1.0) A_3) S_1) 0.0) $x1426))))))))))))))))))))))))
(check-sat)
